5 5 -1 3 10 0 0 -1 7 -1 
10 8 0 2 7 1 4 2 3 -1 
0 1 10 -1 8 5 1 10 8 -1 
9 -1 7 9 -1 1 5 4 10 -1 
8 3 8 5 1 5 3 7 4 -1 
6 4 9 3 0 6 4 -1 6 -1 
9 6 1 5 5 0 7 0 5 -1 
5 -1 1 5 10 7 8 2 8 -1 
9 5 7 5 3 6 2 6 -1 -1 
-1 -1 9 5 9 2 4 9 1 -1 
